# GHz S RI R 100
! S-Parameters data
! Freq   reS11   imS11   reS21   imS21   reS12   imS12   reS22   imS22
1                              0.3332685669     -0.01169914911   0.666600997      -0.00495803958   0.666600997      -0.00495803958   0.3332627692     -0.01155761885
1.1725                         0.3330831836     -0.01351580494   0.6664616746     -0.006004806112  0.6664616746     -0.006004806112  0.333079504      -0.01334931489
1.345                          0.3329087149     -0.01534177015   0.6662904588     -0.00699317198   0.6662904588     -0.00699317198   0.3329056808     -0.01515135569
1.5175                         0.3327394179     -0.01717517122   0.6661024713     -0.007930676315  0.6661024713     -0.007930676315  0.3327358777     -0.01696134563
1.69                           0.332572925      -0.01901491688   0.6659084676     -0.008823904184  0.6659084676     -0.008823904184  0.332567949      -0.01877795534
1.8625                         0.3324084522     -0.02086067765   0.6657164438     -0.00967887697   0.6657164438     -0.00967887697   0.3324012559     -0.02060074641
2.035                          0.3322459143     -0.02271267969   0.6655324207     -0.01050124856   0.6655324207     -0.01050124856   0.3322358082     -0.02242989795
2.2075                         0.3320854772     -0.02457149538   0.6653608797     -0.01129636471   0.6653608797     -0.01129636471   0.332071834      -0.02426596668
2.38                           0.3319273322     -0.02643787283   0.6652050498     -0.0120692514    0.6652050498     -0.0120692514    0.3319095667     -0.02610970156
2.5525                         0.33177159       -0.02831260843   0.6650671263     -0.01282457693   0.6650671263     -0.01282457693   0.331749146      -0.02796190891
2.725                          0.331618238      -0.03019645717   0.6649484539     -0.01356661289   0.6649484539     -0.01356661289   0.3315905804     -0.02982335875
2.8975                         0.3314671335     -0.03209007368   0.6648496866     -0.01429920629   0.6648496866     -0.01429920629   0.3314337437     -0.03169472361
3.07                           0.3313180151     -0.03399397706   0.6647709284     -0.01502576679   0.6647709284     -0.01502576679   0.3312783878     -0.03357654203
3.2425                         0.3311705226     -0.0359085336    0.6647118554     -0.01574926883   0.6647118554     -0.01574926883   0.3311241642     -0.03546920044
3.415                          0.3310242193     -0.03783395246   0.6646718208     -0.0164722662    0.6646718208     -0.0164722662    0.3309706472     -0.03737292835
3.5875                         0.3308786148     -0.03977029045   0.6646499436     -0.017196916     0.6646499436     -0.017196916     0.3308173567     -0.03928780267
3.76                           0.3307331853     -0.04171746266   0.6646451808     -0.01792500879   0.6646451808     -0.01792500879   0.3306637797     -0.0412137582
3.9325                         0.3305873914     -0.04367525685   0.6646563878     -0.01865800239   0.6646563878     -0.01865800239   0.3305093871     -0.04315060173
4.105                          0.3304406928     -0.04564334955   0.6646823646     -0.01939705705   0.6646823646     -0.01939705705   0.3303536494     -0.04509802811
4.2775                         0.3302925604     -0.04762132289   0.6647218933     -0.02014307046   0.6647218933     -0.02014307046   0.3301960482     -0.04705563695
4.45                           0.3301424856     -0.04960868107   0.6647737662     -0.02089671137   0.6647737662     -0.02089671137   0.3300360857     -0.04902294909
4.6225                         0.3299899868     -0.05160486609   0.6648368067     -0.02165845116   0.6648368067     -0.02165845116   0.3298732914     -0.05099942224
4.795                          0.3298346149     -0.05360927215   0.6649098848     -0.02242859286   0.6649098848     -0.02242859286   0.3297072271     -0.05298446545
4.9675                         0.3296759564     -0.05562125874   0.6649919272     -0.02320729741   0.6649919272     -0.02320729741   0.3295374901     -0.05497745221
5.14                           0.3295136353     -0.05764016225   0.6650819245     -0.02399460716   0.6650819245     -0.02399460716   0.3293637152     -0.05697773203
5.3125                         0.3293473142     -0.05966530604   0.6651789345     -0.02479046668   0.6651789345     -0.02479046668   0.3291855757     -0.05898464058
5.485                          0.3291766937     -0.06169600914   0.6652820844     -0.02559474094   0.6652820844     -0.02559474094   0.3290027828     -0.06099750846
5.6575                         0.3290015125     -0.0637315936    0.6653905706     -0.02640723114   0.6653905706     -0.02640723114   0.3288150852     -0.06301566852
5.83                           0.3288215455     -0.0657713906    0.6655036567     -0.02722768837   0.6655036567     -0.02722768837   0.3286222682     -0.06503846208
6.0025                         0.3286366024     -0.06781474554   0.6656206723     -0.02805582534   0.6656206723     -0.02805582534   0.3284241512     -0.06706524399
6.175                          0.328446526      -0.06986102202   0.6657410091     -0.02889132627   0.6657410091     -0.02889132627   0.3282205868     -0.06909538671
6.3475                         0.3282511902     -0.07190960506   0.6658641183     -0.02973385537   0.6658641183     -0.02973385537   0.3280114581     -0.07112828353
6.52                           0.3280504973     -0.07395990353   0.6659895067     -0.03058306386   0.6659895067     -0.03058306386   0.327796677      -0.07316335105
6.6925                         0.3278443766     -0.07601135196   0.6661167328     -0.03143859586   0.6661167328     -0.03143859586   0.3275761814     -0.07520003102
6.865                          0.3276327816     -0.07806341175   0.6662454037     -0.0323000933    0.6662454037     -0.0323000933    0.3273499339     -0.07723779156
7.0375                         0.3274156881     -0.08011557198   0.666375171      -0.03316719984   0.666375171      -0.03316719984   0.3271179189     -0.079276128
7.21                           0.3271930921     -0.08216734977   0.6665057272     -0.03403956415   0.6665057272     -0.03403956415   0.3268801409     -0.08131456329
7.3825                         0.3269650077     -0.08421829036   0.6666368026     -0.03491684247   0.6666368026     -0.03491684247   0.3266366223     -0.08335264807
7.555                          0.3267314652     -0.08626796692   0.6667681617     -0.03579870066   0.6667681617     -0.03579870066   0.3263874017     -0.0853899605
7.7275                         0.3264925092     -0.08831598014   0.6668996003     -0.03668481578   0.6668996003     -0.03668481578   0.326132532      -0.08742610586
7.9                            0.3262481972     -0.09036195762   0.6670309425     -0.03757487725   0.6670309425     -0.03757487725   0.3258720784     -0.08946071598
8.0725                         0.3259985974     -0.09240555322   0.6671620383     -0.0384685877    0.6671620383     -0.0384685877    0.3256061174     -0.09149344857
8.245                          0.3257437878     -0.09444644618   0.6672927607     -0.03936566357   0.6672927607     -0.03936566357   0.3253347348     -0.09352398636
8.4175                         0.3254838543     -0.09648434031   0.6674230035     -0.04026583546   0.6674230035     -0.04026583546   0.3250580244     -0.0955520363
8.59                           0.3252188898     -0.09851896297   0.6675526791     -0.04116884825   0.6675526791     -0.04116884825   0.3247760872     -0.09757732855
8.7625                         0.3249489927     -0.1005500642    0.6676817168     -0.04207446116   0.6676817168     -0.04207446116   0.3244890293     -0.09959961557
8.935                          0.3246742659     -0.1025774156    0.6678100606     -0.04298244761   0.6678100606     -0.04298244761   0.3241969616     -0.1016186711
9.1075                         0.3243948158     -0.1046008095    0.6679376677     -0.04389259497   0.6679376677     -0.04389259497   0.3238999986     -0.1036342893
9.28                           0.3241107515     -0.1066200579    0.6680645068     -0.04480470432   0.6680645068     -0.04480470432   0.3235982571     -0.1056462835
9.4525                         0.3238221836     -0.1086349913    0.6681905572     -0.04571859005   0.6681905572     -0.04571859005   0.323291856      -0.1076544854
9.625                          0.3235292237     -0.1106454581    0.6683158068     -0.04663407946   0.6683158068     -0.04663407946   0.3229809147     -0.1096587442
9.7975                         0.3232319835     -0.1126513234    0.6684402514     -0.04755101232   0.6684402514     -0.04755101232   0.3226655534     -0.1116589255
9.97                           0.3229305745     -0.1146524681    0.6685638935     -0.04846924039   0.6685638935     -0.04846924039   0.3223458916     -0.1136549103
10.1425                        0.3226251069     -0.1166487883    0.6686867415     -0.04938862694   0.6686867415     -0.04938862694   0.3220220478     -0.1156465945
10.315                         0.3223156894     -0.1186401939    0.6688088084     -0.05030904627   0.6688088084     -0.05030904627   0.3216941393     -0.1176338876
10.4875                        0.3220024286     -0.1206266084    0.6689301117     -0.05123038317   0.6689301117     -0.05123038317   0.321362281      -0.1196167121
10.66                          0.3216854288     -0.1226079675    0.6690506717     -0.05215253245   0.6690506717     -0.05215253245   0.3210265859     -0.1215950028
10.8325                        0.3213647912     -0.1245842188    0.669170512      -0.05307539843   0.669170512      -0.05307539843   0.3206871637     -0.1235687059
11.005                         0.3210406137     -0.126555321     0.6692896577     -0.05399889447   0.6692896577     -0.05399889447   0.3203441212     -0.1255377781
11.1775                        0.3207129908     -0.1285212428    0.6694081361     -0.05492294245   0.6694081361     -0.05492294245   0.3199975618     -0.1275021863
11.35                          0.320382013      -0.1304819629    0.669525975      -0.05584747235   0.669525975      -0.05584747235   0.3196475848     -0.1294619066
11.5225                        0.3200477668     -0.1324374686    0.6696432033     -0.05677242174   0.6696432033     -0.05677242174   0.3192942859     -0.1314169238
11.695                         0.3197103341     -0.1343877558    0.6697598499     -0.05769773541   0.6697598499     -0.05769773541   0.3189377562     -0.1333672308
11.8675                        0.3193697926     -0.1363328283    0.6698759437     -0.05862336484   0.6698759437     -0.05862336484   0.3185780826     -0.135312828
12.04                          0.3190262149     -0.1382726966    0.6699915132     -0.05954926789   0.6699915132     -0.05954926789   0.3182153471     -0.1372537224
12.2125                        0.318679669      -0.1402073785    0.6701065862     -0.06047540832   0.6701065862     -0.06047540832   0.3178496272     -0.1391899279
12.385                         0.3183302178     -0.1421368974    0.6702211895     -0.06140175547   0.6702211895     -0.06140175547   0.3174809952     -0.1411214637
12.5575                        0.3179779189     -0.1440612826    0.6703353488     -0.06232828383   0.6703353488     -0.06232828383   0.3171095185     -0.1430483548
12.73                          0.317622825      -0.1459805687    0.6704490884     -0.06325497272   0.6704490884     -0.06325497272   0.3167352594     -0.1449706308
12.9025                        0.3172649832     -0.1478947948    0.6705624311     -0.06418180596   0.6705624311     -0.06418180596   0.3163582749     -0.1468883258
13.075                         0.3169044353     -0.1498040042    0.6706753978     -0.0651087715    0.6706753978     -0.0651087715    0.3159786166     -0.1488014779
13.2475                        0.3165412178     -0.1517082443    0.6707880077     -0.06603586116   0.6707880077     -0.06603586116   0.3155963311     -0.1507101289
13.42                          0.3161753615     -0.1536075659    0.670900278      -0.06696307029   0.670900278      -0.06696307029   0.3152114592     -0.1526143236
13.5925                        0.315806892      -0.1555020227    0.671012224      -0.06789039751   0.671012224      -0.06789039751   0.3148240365     -0.1545141097
13.765                         0.3154358292     -0.1573916714    0.6711238585     -0.06881784441   0.6711238585     -0.06881784441   0.3144340933     -0.1564095373
13.9375                        0.3150621876     -0.1592765706    0.6712351923     -0.06974541531   0.6712351923     -0.06974541531   0.314041654      -0.1583006585
14.11                          0.3146859762     -0.1611567814    0.6713462338     -0.070673117     0.6713462338     -0.070673117     0.3136467382     -0.1601875273
14.2825                        0.3143071985     -0.1630323661    0.6714569892     -0.07160095851   0.6714569892     -0.07160095851   0.3132493596     -0.1620701991
14.455                         0.3139258527     -0.1649033888    0.671567462      -0.07252895088   0.671567462      -0.07252895088   0.3128495268     -0.1639487303
14.6275                        0.3135419316     -0.1667699143    0.6716776536     -0.07345710692   0.6716776536     -0.07345710692   0.3124472429     -0.1658231781
14.8                           0.3131554225     -0.1686320082    0.6717875627     -0.07438544104   0.6717875627     -0.07438544104   0.3120425058     -0.1676936004
14.9725                        0.3127663076     -0.1704897368    0.6718971857     -0.07531396902   0.6718971857     -0.07531396902   0.3116353081     -0.1695600551
15.145                         0.3123745639     -0.1723431665    0.6720065165     -0.07624270784   0.6720065165     -0.07624270784   0.3112256373     -0.1714226003
15.3175                        0.3119801632     -0.1741923635    0.6721155465     -0.07717167548   0.6721155465     -0.07717167548   0.3108134756     -0.1732812937
15.49                          0.3115830724     -0.1760373938    0.6722242647     -0.07810089078   0.6722242647     -0.07810089078   0.3103988005     -0.1751361926
15.6625                        0.3111832532     -0.177878323     0.6723326575     -0.07903037325   0.6723326575     -0.07903037325   0.3099815843     -0.1769873533
15.835                         0.3107806627     -0.1797152157    0.6724407091     -0.0799601429    0.6724407091     -0.0799601429    0.3095617944     -0.1788348315
16.0075                        0.3103752532     -0.1815481357    0.6725484011     -0.08089022016   0.6725484011     -0.08089022016   0.3091393937     -0.1806786815
16.18                          0.3099669722     -0.1833771454    0.6726557129     -0.08182062565   0.6726557129     -0.08182062565   0.3087143402     -0.1825189562
16.3525                        0.3095557628     -0.1852023061    0.6727626215     -0.0827513801    0.6727626215     -0.0827513801    0.3082865874     -0.1843557071
16.525                         0.3091415639     -0.1870236772    0.6728691015     -0.08368250423   0.6728691015     -0.08368250423   0.3078560846     -0.1861889836
16.6975                        0.3087243098     -0.1888413166    0.6729751255     -0.0846140186    0.6729751255     -0.0846140186    0.3074227766     -0.1880188336
16.87                          0.308303931      -0.19065528      0.6730806636     -0.0855459435    0.6730806636     -0.0855459435    0.306986604      -0.1898453025
17.0425                        0.3078803536     -0.1924656212    0.6731856841     -0.08647829886   0.6731856841     -0.08647829886   0.3065475034     -0.1916684337
17.215                         0.3074535003     -0.1942723916    0.6732901529     -0.08741110415   0.6732901529     -0.08741110415   0.3061054076     -0.1934882681
17.3875                        0.3070232897     -0.1960756403    0.6733940341     -0.08834437825   0.6733940341     -0.08834437825   0.3056602456     -0.1953048441
17.56                          0.3065896373     -0.1978754137    0.6734972897     -0.08927813941   0.6734972897     -0.08927813941   0.3052119426     -0.1971181973
17.7325                        0.3061524548     -0.1996717556    0.6735998798     -0.09021240512   0.6735998798     -0.09021240512   0.3047604206     -0.1989283606
17.905                         0.305711651      -0.201464707     0.6737017628     -0.09114719205   0.6737017628     -0.09114719205   0.3043055982     -0.2007353639
18.0775                        0.3052671314     -0.203254306     0.6738028952     -0.092082516     0.6738028952     -0.092082516     0.3038473908     -0.2025392342
18.25                          0.3048187988     -0.2050405876    0.6739032318     -0.09301839178   0.6739032318     -0.09301839178   0.3033857109     -0.2043399952
18.4225                        0.3043665532     -0.2068235837    0.674002726      -0.0939548332    0.674002726      -0.0939548332    0.3029204681     -0.2061376676
18.595                         0.3039102921     -0.2086033229    0.6741013293     -0.09489185297   0.6741013293     -0.09489185297   0.3024515695     -0.2079322685
18.7675                        0.3034499105     -0.2103798308    0.6741989921     -0.09582946267   0.6741989921     -0.09582946267   0.3019789195     -0.209723812
18.94                          0.3029853016     -0.2121531292    0.6742956633     -0.0967676727    0.6742956633     -0.0967676727    0.3015024204     -0.2115123085
19.1125                        0.3025163563     -0.2139232368    0.6743912904     -0.09770649223   0.6743912904     -0.09770649223   0.3010219724     -0.2132977649
19.285                         0.3020429637     -0.2156901686    0.6744858197     -0.09864592915   0.6744858197     -0.09864592915   0.3005374736     -0.2150801847
19.4575                        0.3015650115     -0.2174539362    0.6745791967     -0.09958599008   0.6745791967     -0.09958599008   0.3000488204     -0.2168595678
19.63                          0.3010823858     -0.2192145476    0.6746713654     -0.1005266803    0.6746713654     -0.1005266803    0.2995559077     -0.2186359105
19.8025                        0.3005949715     -0.220972007     0.6747622691     -0.1014680036    0.6747622691     -0.1014680036    0.299058629      -0.2204092052
19.975                         0.3001026525     -0.2227263153    0.6748518502     -0.1024099627    0.6748518502     -0.1024099627    0.2985568764     -0.2221794411
20.1475                        0.2996053119     -0.2244774693    0.6749400504     -0.1033525587    0.6749400504     -0.1033525587    0.2980505413     -0.2239466033
20.32                          0.299102832      -0.2262254625    0.6750268106     -0.1042957912    0.6750268106     -0.1042957912    0.297539514      -0.2257106736
20.4925                        0.2985950948     -0.2279702847    0.6751120711     -0.1052396585    0.6751120711     -0.1052396585    0.2970236842     -0.2274716299
20.665                         0.2980819819     -0.2297119217    0.6751957717     -0.1061841577    0.6751957717     -0.1061841577    0.2965029414     -0.2292294466
20.8375                        0.297563375      -0.2314503562    0.675277852      -0.1071292841    0.675277852      -0.1071292841    0.2959771744     -0.2309840943
21.01                          0.2970391559     -0.2331855668    0.6753582509     -0.1080750318    0.6753582509     -0.1080750318    0.2954462723     -0.2327355404
21.1825                        0.2965092064     -0.2349175287    0.6754369074     -0.1090213934    0.6754369074     -0.1090213934    0.294910124      -0.2344837484
21.355                         0.2959734092     -0.2366462136    0.6755137601     -0.1099683602    0.6755137601     -0.1099683602    0.2943686189     -0.2362286784
21.5275                        0.2954316476     -0.2383715897    0.6755887477     -0.1109159219    0.6755887477     -0.1109159219    0.2938216468     -0.2379702871
21.7                           0.2948838055     -0.2400936216    0.6756618088     -0.1118640672    0.6756618088     -0.1118640672    0.293269098      -0.2397085278
21.8725                        0.2943297682     -0.2418122706    0.6757328824     -0.1128127832    0.6757328824     -0.1128127832    0.2927108637     -0.2414433506
22.045                         0.2937694221     -0.2435274948    0.6758019073     -0.1137620556    0.6758019073     -0.1137620556    0.2921468363     -0.2431747021
22.2175                        0.293202655      -0.2452392488    0.6758688228     -0.1147118689    0.6758688228     -0.1147118689    0.2915769091     -0.2449025261
22.39                          0.2926293563     -0.2469474843    0.6759335687     -0.1156622066    0.6759335687     -0.1156622066    0.2910009768     -0.2466267631
22.5625                        0.2920494172     -0.2486521496    0.675996085      -0.1166130505    0.675996085      -0.1166130505    0.2904189355     -0.2483473507
22.735                         0.2914627308     -0.2503531904    0.6760563122     -0.1175643817    0.6760563122     -0.1175643817    0.2898306833     -0.2500642237
22.9075                        0.2908691924     -0.2520505493    0.6761141918     -0.1185161797    0.6761141918     -0.1185161797    0.2892361197     -0.2517773139
23.08                          0.2902686993     -0.2537441662    0.6761696656     -0.1194684232    0.6761696656     -0.1194684232    0.2886351464     -0.2534865509
23.2525                        0.2896611514     -0.2554339782    0.6762226762     -0.1204210898    0.6762226762     -0.1204210898    0.2880276672     -0.2551918613
23.425                         0.2890464512     -0.25711992      0.6762731673     -0.1213741561    0.6762731673     -0.1213741561    0.287413588      -0.2568931698
23.5975                        0.2884245037     -0.2588019239    0.6763210832     -0.1223275976    0.6763210832     -0.1223275976    0.2867928174     -0.2585903984
23.77                          0.287795217      -0.2604799199    0.6763663694     -0.1232813891    0.6763663694     -0.1232813891    0.2861652662     -0.2602834673
23.9425                        0.2871585019     -0.2621538357    0.6764089722     -0.1242355045    0.6764089722     -0.1242355045    0.2855308482     -0.2619722945
24.115                         0.2865142725     -0.2638235972    0.6764488392     -0.1251899168    0.6764488392     -0.1251899168    0.2848894795     -0.2636567963
24.2875                        0.285862446      -0.2654891284    0.6764859191     -0.1261445984    0.6764859191     -0.1261445984    0.2842410796     -0.2653368873
24.46                          0.2852029429     -0.2671503514    0.6765201618     -0.127099521     0.6765201618     -0.127099521     0.2835855706     -0.2670124805
24.6325                        0.2845356872     -0.268807187     0.6765515184     -0.1280546559    0.6765515184     -0.1280546559    0.2829228781     -0.2686834876
24.805                         0.2838606065     -0.2704595544    0.6765799415     -0.1290099734    0.6765799415     -0.1290099734    0.2822529304     -0.270349819
24.9775                        0.2831776318     -0.2721073716    0.6766053848     -0.1299654438    0.6766053848     -0.1299654438    0.2815756596     -0.2720113843
25.15                          0.2824866981     -0.2737505556    0.6766278036     -0.1309210369    0.6766278036     -0.1309210369    0.2808910008     -0.2736680918
25.3225                        0.2817877439     -0.2753890222    0.6766471547     -0.1318767219    0.6766471547     -0.1318767219    0.2801988927     -0.2753198495
25.495                         0.2810807118     -0.2770226868    0.6766633961     -0.1328324681    0.6766633961     -0.1328324681    0.2794992774     -0.2769665645
25.6675                        0.2803655482     -0.2786514639    0.6766764877     -0.1337882444    0.6766764877     -0.1337882444    0.2787921007     -0.2786081439
25.84                          0.2796422035     -0.2802752678    0.6766863906     -0.1347440197    0.6766863906     -0.1347440197    0.278077312      -0.2802444942
26.0125                        0.2789106319     -0.2818940124    0.6766930677     -0.1356997627    0.6766930677     -0.1356997627    0.2773548642     -0.2818755222
26.185                         0.2781707921     -0.2835076116    0.6766964833     -0.1366554422    0.6766964833     -0.1366554422    0.276624714      -0.2835011346
26.3575                        0.2774226465     -0.2851159792    0.6766966036     -0.1376110272    0.6766966036     -0.1376110272    0.2758868219     -0.2851212386
26.53                          0.2766661617     -0.2867190296    0.6766933961     -0.1385664868    0.6766933961     -0.1385664868    0.2751411521     -0.2867357418
26.7025                        0.2759013086     -0.2883166772    0.6766868302     -0.1395217902    0.6766868302     -0.1395217902    0.2743876725     -0.2883445525
26.875                         0.275128062      -0.2899088374    0.6766768767     -0.1404769071    0.6766768767     -0.1404769071    0.2736263547     -0.2899475797
27.0475                        0.2743464009     -0.2914954259    0.6766635084     -0.1414318075    0.6766635084     -0.1414318075    0.2728571742     -0.2915447337
27.22                          0.2735563084     -0.2930763598    0.6766466993     -0.1423864617    0.6766466993     -0.1423864617    0.2720801102     -0.2931359256
27.3925                        0.2727577718     -0.2946515569    0.6766264255     -0.1433408407    0.6766264255     -0.1433408407    0.2712951456     -0.294721068
27.565                         0.2719507822     -0.2962209364    0.6766026643     -0.144294916     0.6766026643     -0.144294916     0.270502267      -0.2963000752
27.7375                        0.2711353351     -0.297784419     0.6765753951     -0.1452486597    0.6765753951     -0.1452486597    0.2697014647     -0.2978728627
27.91                          0.2703114296     -0.2993419267    0.6765445984     -0.1462020446    0.6765445984     -0.1462020446    0.2688927326     -0.2994393482
28.0825                        0.2694790691     -0.3008933834    0.6765102566     -0.1471550442    0.6765102566     -0.1471550442    0.2680760682     -0.3009994512
28.255                         0.2686382605     -0.3024387148    0.6764723538     -0.148107633     0.6764723538     -0.148107633     0.2672514724     -0.3025530933
28.4275                        0.2677890149     -0.3039778485    0.6764308752     -0.1490597862    0.6764308752     -0.1490597862    0.2664189497     -0.3041001983
28.6                           0.2669313469     -0.3055107143    0.6763858079     -0.1500114798    0.6763858079     -0.1500114798    0.2655785079     -0.3056406925
28.7725                        0.2660652747     -0.3070372444    0.6763371404     -0.1509626911    0.6763371404     -0.1509626911    0.2647301582     -0.3071745045
28.945                         0.2651908204     -0.308557373     0.6762848626     -0.151913398     0.6762848626     -0.151913398     0.2638739149     -0.3087015659
29.1175                        0.2643080092     -0.3100710372    0.6762289657     -0.1528635798    0.6762289657     -0.1528635798    0.2630097955     -0.3102218107
29.29                          0.2634168699     -0.3115781764    0.6761694425     -0.1538132167    0.6761694425     -0.1538132167    0.2621378206     -0.3117351759
29.4625                        0.2625174346     -0.313078733     0.676106287      -0.1547622901    0.676106287      -0.1547622901    0.2612580137     -0.3132416015
29.635                         0.2616097385     -0.314572652     0.6760394945     -0.1557107826    0.6760394945     -0.1557107826    0.260370401      -0.3147410305
29.8075                        0.2606938199     -0.3160598814    0.6759690614     -0.1566586778    0.6759690614     -0.1566586778    0.2594750117     -0.3162334092
29.98                          0.2597697199     -0.3175403723    0.6758949856     -0.1576059608    0.6758949856     -0.1576059608    0.2585718774     -0.3177186871
30.1525                        0.2588374826     -0.3190140787    0.6758172658     -0.1585526178    0.6758172658     -0.1585526178    0.2576610323     -0.319196817
30.325                         0.2578971547     -0.3204809579    0.675735902      -0.1594986362    0.675735902      -0.1594986362    0.2567425128     -0.3206677551
30.4975                        0.2569487854     -0.3219409704    0.6756508951     -0.1604440049    0.6756508951     -0.1604440049    0.2558163578     -0.3221314611
30.67                          0.2559924264     -0.3233940798    0.6755622469     -0.1613887138    0.6755622469     -0.1613887138    0.2548826081     -0.3235878982
30.8425                        0.2550281317     -0.3248402534    0.6754699603     -0.1623327544    0.6754699603     -0.1623327544    0.2539413066     -0.3250370332
31.015                         0.2540559572     -0.3262794615    0.675374039      -0.1632761194    0.675374039      -0.1632761194    0.2529924981     -0.3264788366
31.1875                        0.253075961      -0.327711678     0.6752744872     -0.1642188026    0.6752744872     -0.1642188026    0.2520362288     -0.3279132823
31.36                          0.2520882031     -0.3291368802    0.6751713102     -0.1651607996    0.6751713102     -0.1651607996    0.2510725468     -0.329340348
31.5325                        0.2510927449     -0.3305550489    0.6750645136     -0.1661021068    0.6750645136     -0.1661021068    0.2501015015     -0.3307600152
31.705                         0.2500896496     -0.3319661681    0.6749541039     -0.1670427222    0.6749541039     -0.1670427222    0.2491231435     -0.3321722689
31.8775                        0.2490789817     -0.3333702256    0.6748400879     -0.167982645     0.6748400879     -0.167982645     0.2481375248     -0.3335770978
32.05                          0.2480608069     -0.3347672124    0.6747224729     -0.1689218756    0.6747224729     -0.1689218756    0.247144698      -0.3349744944
32.2225                        0.2470351919     -0.336157123     0.6746012668     -0.1698604157    0.6746012668     -0.1698604157    0.2461447169     -0.3363644548
32.395                         0.2460022046     -0.3375399554    0.6744764775     -0.1707982683    0.6744764775     -0.1707982683    0.2451376359     -0.3377469787
32.5675                        0.2449619134     -0.3389157108    0.6743481133     -0.1717354375    0.6743481133     -0.1717354375    0.2441235098     -0.3391220693
32.74                          0.2439143874     -0.3402843938    0.6742161829     -0.1726719284    0.6742161829     -0.1726719284    0.2431023941     -0.3404897334
32.9125                        0.2428596963     -0.3416460123    0.6740806948     -0.1736077476    0.6740806948     -0.1736077476    0.2420743445     -0.3418499815
33.085                         0.24179791       -0.3430005774    0.6739416577     -0.1745429024    0.6739416577     -0.1745429024    0.2410394167     -0.3432028271
33.2575                        0.2407290986     -0.3443481035    0.6737990806     -0.1754774013    0.6737990806     -0.1754774013    0.2399976666     -0.3445482875
33.43                          0.2396533323     -0.3456886078    0.673652972      -0.1764112539    0.673652972      -0.1764112539    0.2389491498     -0.3458863831
33.6025                        0.2385706811     -0.3470221107    0.6735033407     -0.1773444704    0.6735033407     -0.1773444704    0.237893922      -0.3472171374
33.775                         0.2374812149     -0.3483486355    0.673350195      -0.1782770623    0.673350195      -0.1782770623    0.2368320381     -0.3485405772
33.9475                        0.2363850032     -0.3496682083    0.6731935433     -0.1792090417    0.6731935433     -0.1792090417    0.2357635527     -0.3498567321
34.12                          0.2352821148     -0.3509808579    0.6730333936     -0.1801404214    0.6730333936     -0.1801404214    0.2346885199     -0.3511656349
34.2925                        0.2341726182     -0.3522866158    0.6728697535     -0.1810712152    0.6728697535     -0.1810712152    0.233606993      -0.3524673211
34.465                         0.233056581      -0.353585516     0.6727026305     -0.1820014371    0.6727026305     -0.1820014371    0.2325190243     -0.3537618286
34.6375                        0.2319340699     -0.3548775948    0.6725320315     -0.1829311021    0.6725320315     -0.1829311021    0.2314246653     -0.3550491983
34.81                          0.2308051507     -0.3561628907    0.672357963      -0.1838602255    0.672357963      -0.1838602255    0.2303239666     -0.3563294733
34.9825                        0.2296698881     -0.3574414446    0.672180431      -0.1847888232    0.672180431      -0.1847888232    0.2292169774     -0.357602699
35.155                         0.2285283456     -0.3587132991    0.6719994411     -0.1857169112    0.6719994411     -0.1857169112    0.2281037459     -0.358868923
35.3275                        0.2273805855     -0.359978499     0.6718149983     -0.1866445059    0.6718149983     -0.1866445059    0.2269843188     -0.3601281949
35.5                           0.2262266688     -0.3612370904    0.6716271069     -0.1875716242    0.6716271069     -0.1875716242    0.2258587416     -0.3613805663
35.6725                        0.2250666548     -0.3624891212    0.6714357709     -0.1884982827    0.6714357709     -0.1884982827    0.2247270582     -0.3626260903
35.845                         0.2239006016     -0.3637346408    0.6712409933     -0.1894244984    0.6712409933     -0.1894244984    0.2235893111     -0.3638648216
36.0175                        0.2227285655     -0.3649736996    0.6710427767     -0.1903502881    0.6710427767     -0.1903502881    0.2224455412     -0.3650968165
36.19                          0.2215506013     -0.3662063494    0.6708411229     -0.1912756685    0.6708411229     -0.1912756685    0.2212957878     -0.3663221324
36.3625                        0.220366762      -0.3674326427    0.6706360333     -0.1922006563    0.6706360333     -0.1922006563    0.2201400884     -0.3675408278
36.535                         0.219177099      -0.368652633     0.6704275083     -0.1931252678    0.6704275083     -0.1931252678    0.218978479      -0.3687529621
36.7075                        0.2179816617     -0.3698663741    0.6702155477     -0.1940495189    0.6702155477     -0.1940495189    0.2178109937     -0.3699585953
36.88                          0.2167804978     -0.3710739205    0.6700001507     -0.1949734253    0.6700001507     -0.1949734253    0.216637665      -0.3711577883
37.0525                        0.2155736533     -0.3722753271    0.6697813157     -0.195897002     0.6697813157     -0.195897002     0.2154585235     -0.3723506022
37.225                         0.2143611721     -0.3734706485    0.6695590406     -0.1968202636    0.6695590406     -0.1968202636    0.2142735981     -0.3735370982
37.3975                        0.2131430963     -0.3746599396    0.6693333224     -0.1977432238    0.6693333224     -0.1977432238    0.2130829158     -0.3747173379
37.57                          0.2119194661     -0.3758432549    0.6691041576     -0.1986658959    0.6691041576     -0.1986658959    0.2118865021     -0.3758913825
37.7425                        0.21069032       -0.3770206488    0.6688715421     -0.1995882922    0.6688715421     -0.1995882922    0.2106843805     -0.377059293
37.915                         0.2094556944     -0.3781921747    0.668635471      -0.200510424     0.668635471      -0.200510424     0.2094765729     -0.3782211299
38.0875                        0.208215624      -0.3793578857    0.6683959389     -0.201432302     0.6683959389     -0.201432302     0.2082630993     -0.3793769532
38.26                          0.2069701416     -0.3805178339    0.6681529399     -0.2023539356    0.6681529399     -0.2023539356    0.2070439783     -0.3805268221
38.4325                        0.2057192783     -0.3816720702    0.6679064676     -0.2032753331    0.6679064676     -0.2032753331    0.2058192267     -0.3816707947
38.605                         0.2044630634     -0.3828206445    0.667656515      -0.2041965018    0.667656515      -0.2041965018    0.2045888599     -0.382808928
38.7775                        0.2032015245     -0.3839636053    0.6674030746     -0.2051174477    0.6674030746     -0.2051174477    0.2033528915     -0.383941278
38.95                          0.2019346876     -0.3851009997    0.6671461386     -0.2060381756    0.6671461386     -0.2060381756    0.2021113338     -0.3850678989
39.1225                        0.200662577      -0.3862328729    0.666885699      -0.2069586888    0.666885699      -0.2069586888    0.2008641979     -0.3861888436
39.295                         0.1993852157     -0.3873592688    0.6666217471     -0.2078789894    0.6666217471     -0.2078789894    0.1996114934     -0.387304163
39.4675                        0.198102625      -0.3884802288    0.6663542743     -0.2087990778    0.6663542743     -0.2087990778    0.1983532285     -0.3884139065
39.64                          0.196814825      -0.3895957927    0.6660832717     -0.2097189532    0.6660832717     -0.2097189532    0.1970894107     -0.3895181211
39.8125                        0.1955218346     -0.390705998     0.6658087301     -0.2106386131    0.6658087301     -0.2106386131    0.1958200461     -0.3906168519
39.985                         0.1942236713     -0.3918108798    0.6655306405     -0.2115580536    0.6655306405     -0.2115580536    0.1945451402     -0.3917101416
40.1575                        0.1929203517     -0.3929104708    0.6652489937     -0.2124772688    0.6652489937     -0.2124772688    0.1932646972     -0.3927980307
40.33                          0.1916118913     -0.3940048014    0.6649637807     -0.2133962517    0.6649637807     -0.2133962517    0.1919787212     -0.3938805571
40.5025                        0.1902983049     -0.3950938992    0.6646749926     -0.2143149932    0.6646749926     -0.2143149932    0.1906872151     -0.3949577558
40.675                         0.1889796063     -0.3961777889    0.6643826206     -0.2152334828    0.6643826206     -0.2152334828    0.1893901818     -0.3960296596
40.8475                        0.1876558089     -0.3972564928    0.6640866563     -0.216151708     0.6640866563     -0.216151708     0.1880876236     -0.3970962982
41.02                          0.1863269254     -0.3983300301    0.6637870917     -0.2170696549    0.6637870917     -0.2170696549    0.1867795426     -0.3981576983
41.1925                        0.1849929683     -0.399398417     0.6634839192     -0.2179873078    0.6634839192     -0.2179873078    0.1854659409     -0.3992138838
41.365                         0.1836539497     -0.4004616667    0.6631771317     -0.218904649     0.6631771317     -0.218904649     0.1841468207     -0.4002648756
41.5375                        0.1823098817     -0.4015197893    0.6628667228     -0.2198216596    0.6628667228     -0.2198216596    0.1828221843     -0.4013106914
41.71                          0.1809607762     -0.402572792     0.6625526867     -0.2207383185    0.6625526867     -0.2207383185    0.1814920343     -0.4023513456
41.8825                        0.1796066455     -0.4036206784    0.6622350186     -0.2216546031    0.6622350186     -0.2216546031    0.1801563739     -0.4033868497
42.055                         0.1782475021     -0.4046634493    0.6619137143     -0.2225704893    0.6619137143     -0.2225704893    0.1788152069     -0.4044172117
42.2275                        0.1768833589     -0.405701102     0.6615887707     -0.223485951     0.6615887707     -0.223485951     0.177468538      -0.4054424364
42.4                           0.1755142294     -0.4067336307    0.6612601857     -0.2244009607    0.6612601857     -0.2244009607    0.1761163725     -0.4064625254
42.5725                        0.1741401278     -0.4077610263    0.6609279586     -0.2253154894    0.6609279586     -0.2253154894    0.1747587173     -0.4074774768
42.745                         0.1727610694     -0.4087832765    0.6605920895     -0.2262295064    0.6605920895     -0.2262295064    0.17339558       -0.4084872856
42.9175                        0.1713770702     -0.4098003658    0.6602525802     -0.2271429795    0.6602525802     -0.2271429795    0.17202697       -0.4094919433
43.09                          0.1699881476     -0.4108122753    0.6599094336     -0.2280558752    0.6599094336     -0.2280558752    0.1706528982     -0.4104914382
43.2625                        0.1685943202     -0.4118189833    0.6595626544     -0.2289681586    0.6595626544     -0.2289681586    0.1692733769     -0.4114857555
43.435                         0.167195608      -0.4128204645    0.6592122486     -0.2298797934    0.6592122486     -0.2298797934    0.1678884205     -0.412474877
43.6075                        0.1657920329     -0.413816691     0.6588582241     -0.230790742     0.6588582241     -0.230790742     0.1664980455     -0.4134587814
43.78                          0.1643836181     -0.4148076315    0.6585005903     -0.231700966     0.6585005903     -0.231700966     0.1651022703     -0.4144374442
43.9525                        0.1629703891     -0.4157932519    0.6581393587     -0.2326104256    0.6581393587     -0.2326104256    0.1637011156     -0.415410838
44.125                         0.1615523731     -0.4167735154    0.6577745426     -0.2335190801    0.6577745426     -0.2335190801    0.1622946048     -0.4163789323
44.2975                        0.1601295997     -0.4177483821    0.6574061571     -0.2344268878    0.6574061571     -0.2344268878    0.1608827634     -0.4173416938
44.47                          0.1587021005     -0.4187178096    0.6570342197     -0.2353338065    0.6570342197     -0.2353338065    0.15946562       -0.4182990863
44.6425                        0.1572699097     -0.4196817529    0.6566587497     -0.236239793     0.6566587497     -0.236239793     0.1580432059     -0.419251071
44.815                         0.155833064      -0.4206401645    0.6562797688     -0.2371448037    0.6562797688     -0.2371448037    0.1566155551     -0.4201976065
44.9875                        0.1543916026     -0.4215929947    0.6558973009     -0.2380487945    0.6558973009     -0.2380487945    0.1551827051     -0.4211386488
45.16                          0.1529455676     -0.4225401914    0.6555113723     -0.2389517209    0.6555113723     -0.2389517209    0.1537446961     -0.4220741518
45.3325                        0.1514950039     -0.4234817005    0.6551220116     -0.2398535381    0.6551220116     -0.2398535381    0.1523015719     -0.4230040669
45.505                         0.1500399592     -0.4244174659    0.6547292497     -0.2407542015    0.6547292497     -0.2407542015    0.1508533795     -0.4239283436
45.6775                        0.1485804844     -0.4253474299    0.6543331203     -0.2416536661    0.6543331203     -0.2416536661    0.1494001694     -0.4248469296
45.85                          0.1471166334     -0.426271533     0.6539336593     -0.2425518875    0.6539336593     -0.2425518875    0.1479419957     -0.4257597707
46.0225                        0.1456484632     -0.4271897144    0.6535309054     -0.2434488212    0.6535309054     -0.2434488212    0.146478916      -0.4266668109
46.195                         0.1441760343     -0.4281019118    0.6531248997     -0.2443444235    0.6531248997     -0.2443444235    0.1450109916     -0.4275679932
46.3675                        0.1426994102     -0.429008062     0.6527156861     -0.245238651     0.6527156861     -0.245238651     0.1435382877     -0.428463259
46.54                          0.1412186579     -0.4299081008    0.6523033111     -0.2461314612    0.6523033111     -0.2461314612    0.1420608729     -0.4293525487
46.7125                        0.1397338478     -0.4308019633    0.6518878238     -0.2470228124    0.6518878238     -0.2470228124    0.1405788201     -0.430235802
46.885                         0.1382450537     -0.4316895839    0.6514692759     -0.2479126639    0.6514692759     -0.2479126639    0.1390922057     -0.4311129578
47.0575                        0.1367523528     -0.4325708969    0.651047722      -0.2488009763    0.651047722      -0.2488009763    0.1376011101     -0.4319839542
47.23                          0.1352558258     -0.4334458363    0.6506232192     -0.2496877113    0.6506232192     -0.2496877113    0.1361056176     -0.4328487295
47.4025                        0.1337555567     -0.4343143361    0.6501958274     -0.2505728324    0.6501958274     -0.2505728324    0.1346058163     -0.4337072215
47.575                         0.1322516331     -0.4351763306    0.649765609      -0.2514563045    0.649765609      -0.2514563045    0.1331017982     -0.4345593682
47.7475                        0.1307441461     -0.4360317546    0.6493326292     -0.2523380943    0.6493326292     -0.2523380943    0.1315936592     -0.435405108
47.92                          0.1292331898     -0.4368805434    0.6488969557     -0.2532181705    0.6488969557     -0.2532181705    0.130081499      -0.4362443797
48.0925                        0.127718862      -0.4377226334    0.6484586588     -0.254096504     0.6484586588     -0.254096504     0.1285654209     -0.4370771227
48.265                         0.1262012638     -0.4385579619    0.6480178113     -0.2549730677    0.6480178113     -0.2549730677    0.1270455322     -0.4379032775
48.4375                        0.1246804992     -0.4393864674    0.6475744886     -0.255847837     0.6475744886     -0.255847837     0.1255219435     -0.4387227856
48.61                          0.1231566758     -0.44020809      0.6471287684     -0.2567207899    0.6471287684     -0.2567207899    0.1239947693     -0.4395355898
48.7825                        0.1216299039     -0.4410227714    0.6466807309     -0.2575919071    0.6466807309     -0.2575919071    0.1224641273     -0.4403416345
48.955                         0.1201002969     -0.4418304552    0.6462304586     -0.258461172     0.6462304586     -0.258461172     0.1209301388     -0.4411408657
49.1275                        0.1185679711     -0.4426310869    0.6457780361     -0.2593285709    0.6457780361     -0.2593285709    0.1193929283     -0.4419332313
49.3                           0.1170330457     -0.4434246145    0.6453235503     -0.2601940935    0.6453235503     -0.2601940935    0.1178526232     -0.4427186814
49.4725                        0.1154956422     -0.4442109881    0.64486709       -0.2610577324    0.64486709       -0.2610577324    0.1163093542     -0.4434971682
49.645                         0.1139558848     -0.4449901607    0.6444087462     -0.2619194837    0.6444087462     -0.2619194837    0.1147632549     -0.4442686465
49.8175                        0.1124139        -0.4457620878    0.6439486117     -0.262779347     0.6439486117     -0.262779347     0.1132144612     -0.4450330735
49.99                          0.1108698166     -0.446526728     0.6434867808     -0.2636373254    0.6434867808     -0.2636373254    0.1116631121     -0.4457904095
50.1625                        0.1093237651     -0.4472840429    0.6430233499     -0.2644934256    0.6430233499     -0.2644934256    0.1101093485     -0.4465406174
50.335                         0.1077758783     -0.4480339972    0.6425584166     -0.2653476584    0.6425584166     -0.2653476584    0.1085533138     -0.4472836635
50.5075                        0.1062262902     -0.4487765594    0.64209208       -0.2662000381    0.64209208       -0.2662000381    0.1069951532     -0.4480195171
50.68                          0.1046751366     -0.4495117009    0.6416244406     -0.2670505832    0.6416244406     -0.2670505832    0.1054350137     -0.4487481509
50.8525                        0.1031225544     -0.4502393971    0.6411555999     -0.2678993163    0.6411555999     -0.2678993163    0.103873044      -0.4494695412
51.025                         0.1015686817     -0.450959627     0.6406856605     -0.268746264     0.6406856605     -0.268746264     0.1023093941     -0.4501836677
51.1975                        0.1000136571     -0.4516723734    0.6402147258     -0.269591457     0.6402147258     -0.269591457     0.1007442151     -0.4508905138
51.37                          0.09845762036    -0.452377623     0.6397429        -0.2704349305    0.6397429        -0.2704349305    0.0991776591     -0.4515900669
51.5425                        0.09690071115    -0.4530753664    0.6392702877     -0.2712767238    0.6392702877     -0.2712767238    0.09760987869    -0.452282318
51.715                         0.09534306952    -0.4537655984    0.638796994      -0.2721168806    0.638796994      -0.2721168806    0.096041027      -0.4529672621
51.8875                        0.09378483539    -0.4544483177    0.6383231244     -0.2729554489    0.6383231244     -0.2729554489    0.09447125731    -0.4536448982
52.06                          0.09222614835    -0.4551235271    0.6378487841     -0.273792481     0.6378487841     -0.273792481     0.09290072278    -0.454315229
52.2325                        0.09066714741    -0.4557912336    0.6373740785     -0.2746280337    0.6373740785     -0.2746280337    0.09132957623    -0.4549782617
52.405                         0.08910797076    -0.4564514482    0.6368991127     -0.2754621682    0.6368991127     -0.2754621682    0.08975796987    -0.4556340071
52.5775                        0.0875487555     -0.4571041861    0.6364239913     -0.2762949498    0.6364239913     -0.2762949498    0.08818605501    -0.4562824802
52.75                          0.0859896374     -0.4577494666    0.6359488182     -0.2771264485    0.6359488182     -0.2771264485    0.08661398184    -0.4569236998
52.9225                        0.08443075064    -0.4583873128    0.6354736966     -0.2779567383    0.6354736966     -0.2779567383    0.08504189909    -0.4575576888
53.095                         0.08287222754    -0.4590177521    0.6349987288     -0.2787858975    0.6349987288     -0.2787858975    0.08346995382    -0.4581844739
53.2675                        0.0813141983     -0.4596408155    0.6345240158     -0.2796140085    0.6345240158     -0.2796140085    0.08189829113    -0.4588040857
53.44                          0.07975679079    -0.460256538     0.6340496573     -0.2804411581    0.6340496573     -0.2804411581    0.08032705389    -0.4594165584
53.6125                        0.07820013024    -0.4608649582    0.6335757514     -0.2812674367    0.6335757514     -0.2812674367    0.07875638246    -0.4600219297
53.785                         0.07664433901    -0.4614661183    0.6331023948     -0.282092939     0.6331023948     -0.282092939     0.07718641444    -0.4606202412
53.9575                        0.07508953635    -0.4620600638    0.6326296819     -0.2829177633    0.6326296819     -0.2829177633    0.07561728441    -0.4612115373
54.13                          0.07353583815    -0.4626468437    0.6321577053     -0.2837420115    0.6321577053     -0.2837420115    0.07404912366    -0.4617958661
54.3025                        0.07198335668    -0.4632265098    0.6316865553     -0.2845657893    0.6316865553     -0.2845657893    0.07248205993    -0.4623732783
54.475                         0.07043220039    -0.4637991171    0.6312163197     -0.2853892057    0.6312163197     -0.2853892057    0.07091621718    -0.4629438276
54.6475                        0.06888247368    -0.464364723     0.6307470838     -0.2862123728    0.6307470838     -0.2862123728    0.06935171535    -0.4635075705
54.82                          0.06733427664    -0.4649233876    0.6302789299     -0.2870354059    0.6302789299     -0.2870354059    0.06778867011    -0.4640645655
54.9925                        0.06578770487    -0.465475173     0.6298119377     -0.2878584232    0.6298119377     -0.2878584232    0.06622719263    -0.4646148737
55.165                         0.06424284929    -0.4660201434    0.6293461835     -0.2886815455    0.6293461835     -0.2886815455    0.06466738937    -0.4651585578
55.3375                        0.0626997959     -0.4665583647    0.6288817403     -0.2895048963    0.6288817403     -0.2895048963    0.06310936188    -0.4656956821
55.51                          0.06115862565    -0.4670899042    0.6284186779     -0.2903286009    0.6284186779     -0.2903286009    0.06155320659    -0.4662263125
55.6825                        0.0596194142     -0.4676148301    0.6279570622     -0.291152787     0.6279570622     -0.291152787     0.05999901462    -0.4667505157
55.855                         0.05808223183    -0.4681332115    0.6274969555     -0.2919775839    0.6274969555     -0.2919775839    0.05844687162    -0.4672683593
56.0275                        0.05654714326    -0.4686451181    0.6270384162     -0.2928031224    0.6270384162     -0.2928031224    0.05689685758    -0.467779911
56.2                           0.05501420748    -0.4691506193    0.6265814986     -0.2936295346    0.6265814986     -0.2936295346    0.0553490467     -0.468285239
56.3725                        0.05348347769    -0.4696497845    0.6261262527     -0.2944569533    0.6261262527     -0.2944569533    0.05380350727    -0.4687844107
56.545                         0.05195500116    -0.4701426823    0.6256727244     -0.2952855123    0.6256727244     -0.2952855123    0.0522603015     -0.469277493
56.7175                        0.05042881913    -0.4706293804    0.6252209549     -0.2961153454    0.6252209549     -0.2961153454    0.05071948546    -0.4697645518
56.89                          0.04890496676    -0.4711099447    0.6247709811     -0.2969465866    0.6247709811     -0.2969465866    0.04918110896    -0.4702456514
57.0625                        0.04738347305    -0.4715844397    0.624322835      -0.2977793693    0.624322835      -0.2977793693    0.04764521551    -0.470720854
57.235                         0.0458643608     -0.4720529272    0.6238765439     -0.2986138264    0.6238765439     -0.2986138264    0.04611184222    -0.4711902198
57.4075                        0.0443476466     -0.4725154663    0.6234321302     -0.2994500898    0.6234321302     -0.2994500898    0.04458101981    -0.471653806
57.58                          0.04283334083    -0.4729721129    0.6229896114     -0.3002882898    0.6229896114     -0.3002882898    0.04305277256    -0.4721116667
57.7525                        0.04132144763    -0.4734229195    0.6225489998     -0.301128555     0.6225489998     -0.301128555     0.04152711831    -0.4725638521
57.925                         0.039811965      -0.4738679341    0.6221103027     -0.3019710118    0.6221103027     -0.3019710118    0.04000406852    -0.4730104086
58.0975                        0.03830488479    -0.4743072003    0.6216735222     -0.302815784     0.6216735222     -0.302815784     0.03848362825    -0.4734513775
58.27                          0.03680019283    -0.4747407565    0.6212386551     -0.3036629922    0.6212386551     -0.3036629922    0.03696579628    -0.4738867955
58.4425                        0.03529786899    -0.4751686355    0.6208056931     -0.3045127538    0.6208056931     -0.3045127538    0.03545056517    -0.4743166933
58.615                         0.03379788733    -0.4755908642    0.6203746224     -0.3053651822    0.6203746224     -0.3053651822    0.03393792134    -0.4747410956
58.7875                        0.0323002162     -0.4760074626    0.619945424      -0.3062203866    0.619945424      -0.3062203866    0.03242784527    -0.4751600207
58.96                          0.03080481845    -0.4764184438    0.6195180736     -0.3070784713    0.6195180736     -0.3070784713    0.03092031157    -0.4755734795
59.1325                        0.02931165158    -0.4768238132    0.6190925413     -0.3079395353    0.6190925413     -0.3079395353    0.02941528922    -0.4759814754
59.305                         0.027820668      -0.4772235683    0.6186687923     -0.308803672     0.6186687923     -0.308803672     0.02791274173    -0.4763840039
59.4775                        0.02633181519    -0.4776176977    0.6182467862     -0.3096709688    0.6182467862     -0.3096709688    0.02641262741    -0.4767810516
59.65                          0.02484503605    -0.4780061809    0.6178264775     -0.3105415061    0.6178264775     -0.3105415061    0.02491489954    -0.4771725959
59.8225                        0.02336026912    -0.4783889878    0.6174078155     -0.3114153573    0.6174078155     -0.3114153573    0.02341950674    -0.4775586049
59.995                         0.02187744893    -0.4787660782    0.6169907443     -0.3122925882    0.6169907443     -0.3122925882    0.02192639321    -0.4779390363
60.1675                        0.02039650628    -0.4791374011    0.6165752029     -0.3131732565    0.6165752029     -0.3131732565    0.02043549904    -0.4783138371
60.34                          0.0189173687     -0.4795028946    0.6161611257     -0.314057411     0.6161611257     -0.314057411     0.01894676064    -0.4786829433
60.5125                        0.01743996072    -0.4798624847    0.6157484418     -0.3149450915    0.6157484418     -0.3149450915    0.01746011101    -0.4790462791
60.685                         0.01596420437    -0.4802160856    0.6153370758     -0.3158363282    0.6153370758     -0.3158363282    0.01597548025    -0.4794037569
60.8575                        0.01449001959    -0.4805635988    0.6149269479     -0.316731141     0.6149269479     -0.316731141     0.0144927959     -0.479755276
61.03                          0.01301732468    -0.4809049128    0.6145179734     -0.3176295389    0.6145179734     -0.3176295389    0.01301198344    -0.4801007231
61.2025                        0.01154603681    -0.4812399024    0.6141100639     -0.3185315201    0.6141100639     -0.3185315201    0.01153296677    -0.4804399712
61.375                         0.01007607253    -0.4815684285    0.6137031264     -0.3194370706    0.6137031264     -0.3194370706    0.01005566869    -0.4807728793
61.5475                        0.008607348277   -0.4818903377    0.6132970645     -0.3203461644    0.6132970645     -0.3203461644    0.00858001144    -0.4810992922
61.72                          0.007139781009   -0.4822054617    0.6128917778     -0.3212587625    0.6128917778     -0.3212587625    0.007105917286   -0.4814190396
61.8925                        0.00567328873    -0.482513617     0.6124871625     -0.3221748128    0.6124871625     -0.3221748128    0.005633309055   -0.4817319364
62.065                         0.00420779113    -0.4828146047    0.6120831119     -0.3230942492    0.6120831119     -0.3230942492    0.004162110765   -0.4820377818
62.2375                        0.002743210218   -0.4831082098    0.6116795161     -0.3240169913    0.6116795161     -0.3240169913    0.002692248247   -0.4823363592
62.41                          0.001279470976   -0.4833942012    0.6112762627     -0.3249429438    0.6112762627     -0.3249429438    0.001223649795   -0.4826274357
62.5825                        -0.0001834979563 -0.4836723313    0.6108732369     -0.3258719962    0.6108732369     -0.3258719962    -0.0002437531623 -0.4829107619
62.755                         -0.001645763584  -0.4839423357    0.6104703221     -0.3268040221    0.6104703221     -0.3268040221    -0.001710025367  -0.4831860718
62.9275                        -0.003107387838  -0.484203933     0.6100673996     -0.3277388786    0.6100673996     -0.3277388786    -0.003175227017  -0.4834530822
63.1                           -0.004568426833  -0.4844568244    0.6096643498     -0.3286764063    0.6096643498     -0.3286764063    -0.004639413037  -0.4837114928
63.2725                        -0.006028930114  -0.484700694     0.6092610518     -0.3296164284    0.6092610518     -0.3296164284    -0.006102632325  -0.483960986
63.445                         -0.007488939884  -0.4849352081    0.6088573843     -0.3305587502    0.6088573843     -0.3305587502    -0.007564926988  -0.4842012264
63.6175                        -0.008948490219  -0.4851600154    0.6084532257     -0.3315031593    0.6084532257     -0.3315031593    -0.009026331561  -0.4844318611
63.79                          -0.01040760627   -0.485374747     0.6080484547     -0.3324494243    0.6080484547     -0.3324494243    -0.01048687221   -0.4846525194
63.9625                        -0.01186630345   -0.485579016     0.6076429504     -0.3333972951    0.6076429504     -0.3333972951    -0.01194656593   -0.4848628131
64.135                         -0.01332458662   -0.485772418     0.6072365933     -0.3343465021    0.6072365933     -0.3343465021    -0.01340541973   -0.4850623358
64.3075                        -0.01478244927   -0.4859545308    0.606829265      -0.3352967561    0.606829265      -0.3352967561    -0.0148634298    -0.4852506639
64.48                          -0.01623987267   -0.4861249145    0.6064208495     -0.3362477477    0.6064208495     -0.3362477477    -0.0163205807    -0.4854273557
64.6525                        -0.01769682507   -0.486283112     0.606011233      -0.3371991472    0.606011233      -0.3371991472    -0.01777684453   -0.4855919524
64.825                         -0.01915326084   -0.4864286487    0.6056003046     -0.338150604     0.6056003046     -0.338150604     -0.01923218007   -0.4857439777
64.9975                        -0.02060911967   -0.4865610331    0.6051879569     -0.3391017466    0.6051879569     -0.3391017466    -0.020686532     -0.4858829383
65.17                          -0.02206432572   -0.4866797569    0.6047740864     -0.3400521825    0.6047740864     -0.3400521825    -0.02213983005   -0.4860083241
65.3425                        -0.02351878683   -0.4867842954    0.6043585941     -0.3410014972    0.6043585941     -0.3410014972    -0.02359198816   -0.4861196085
65.515                         -0.02497239373   -0.486874108     0.6039413858     -0.3419492549    0.6039413858     -0.3419492549    -0.02504290374   -0.4862162489
65.6875                        -0.02642501921   -0.4869486381    0.6035223729     -0.3428949978    0.6035223729     -0.3428949978    -0.02649245683   -0.486297687
65.86                          -0.02787651743   -0.4870073146    0.6031014728     -0.343838246     0.6031014728     -0.343838246     -0.02794050934   -0.4863633493
66.0325                        -0.02932672308   -0.4870495513    0.6026786092     -0.3447784977    0.6026786092     -0.3447784977    -0.02938690433   -0.4864126476
66.205                         -0.03077545077   -0.4870747483    0.602253713      -0.3457152287    0.602253713      -0.3457152287    -0.03083146523   -0.4864449798
66.3775                        -0.03222249426   -0.4870822923    0.6018267228     -0.3466478925    0.6018267228     -0.3466478925    -0.03227399521   -0.4864597301
66.55                          -0.03366762583   -0.4870715573    0.6013975849     -0.3475759203    0.6013975849     -0.3475759203    -0.03371427644   -0.4864562702
66.7225                        -0.03511059569   -0.4870419056    0.6009662546     -0.3484987213    0.6009662546     -0.3484987213    -0.03515206955   -0.4864339597
66.895                         -0.03655113135   -0.486992688     0.600532696      -0.349415682     0.600532696      -0.349415682     -0.03658711294   -0.4863921468
67.0675                        -0.03798893715   -0.4869232454    0.600096883      -0.3503261671    0.600096883      -0.3503261671    -0.03801912232   -0.4863301694
67.24                          -0.03942369373   -0.4868329091    0.5996587995     -0.3512295191    0.5996587995     -0.3512295191    -0.03944779017   -0.4862473559
67.4125                        -0.04085505758   -0.4867210019    0.59921844       -0.3521250588    0.59921844       -0.3521250588    -0.04087278528   -0.4861430261
67.585                         -0.04228266075   -0.4865868394    0.5987758101     -0.353012085     0.5987758101     -0.353012085     -0.04229375239   -0.486016492
67.7575                        -0.04370611042   -0.4864297303    0.5983309267     -0.3538898753    0.5983309267     -0.3538898753    -0.04371031182   -0.485867059
67.93                          -0.04512498874   -0.4862489781    0.5978838187     -0.354757686     0.5978838187     -0.354757686     -0.04512205922   -0.4856940269
68.1025                        -0.04653885257   -0.486043882     0.5974345274     -0.3556147524    0.5974345274     -0.3556147524    -0.04652856534   -0.4854966911
68.275                         -0.04794723341   -0.4858137378    0.5969831068     -0.3564602894    0.5969831068     -0.3564602894    -0.04792937589   -0.4852743434
68.4475                        -0.04934963732   -0.4855578394    0.5965296237     -0.3572934913    0.5965296237     -0.3572934913    -0.0493240115    -0.4850262733
68.62                          -0.05074554497   -0.4852754797    0.5960741586     -0.358113533     0.5960741586     -0.358113533     -0.05071196766   -0.4847517694
68.7925                        -0.05213441173   -0.4849659517    0.5956168057     -0.3589195697    0.5956168057     -0.3589195697    -0.05209271487   -0.4844501201
68.965                         -0.05351566786   -0.4846285502    0.5951576728     -0.3597107379    0.5951576728     -0.3597107379    -0.05346569876   -0.4841206153
69.1375                        -0.05488871879   -0.4842625724    0.5946968823     -0.3604861554    0.5946968823     -0.3604861554    -0.05483034034   -0.4837625472
69.31                          -0.05625294546   -0.4838673197    0.5942345709     -0.3612449222    0.5942345709     -0.3612449222    -0.0561860363    -0.4833752119
69.4825                        -0.05760770476   -0.4834420984    0.5937708897     -0.3619861209    0.5937708897     -0.3619861209    -0.05753215947   -0.4829579103
69.655                         -0.05895233007   -0.4829862213    0.593306005      -0.3627088175    0.593306005      -0.3627088175    -0.05886805929   -0.4825099496
69.8275                        -0.06028613186   -0.4824990089    0.5928400974     -0.3634120614    0.5928400974     -0.3634120614    -0.06019306238   -0.4820306442
70                             -0.06160839839   -0.4819797904    0.5923733626     -0.364094887     0.5923733626     -0.364094887     -0.06150647324   -0.4815193175
! Noise Data
